outputs/r208.txt.out
filename: R208
Vehicles: 25, Capacity: 1000
Total customers : 101
No of routes: 6
Route #1: 53 58 40 26 12 80 68 77
Route #2: 69 1 50 76 3 33 81 51 9 71 65 35 34 78 79 29 24 54 55 25 56 75 41 22 74 72 73 21
Route #3: 4 39 67 23 97 95 94 13
Route #4: 87 57 2
Route #5: 15 43 42 92 59 99 93 85 91 14 38 44 86 16 61 17 84 5 60 83 8 46 82 7 88 31 70 30 20 66
Route #6: 52 62 10 32 90 63 64 49 11 19 36 47 48 45 18 98 100 37 96 6 89 27 28
Cost 903
